Problem:    auctioneer
Rows:       9
Columns:    10 (5 integer, 5 binary)
Non-zeros:  49
Status:     INTEGER OPTIMAL
Objective:  least_proft = 1 (MAXimum)

   No.   Row name        Activity     Lower bound   Upper bound
------ ------------    ------------- ------------- -------------
     1 least_proft                 1                             
     2 profit[q]                   0            -0             = 
     3 profit[r]                   0            -0             = 
     4 profit[s]                   0            -0             = 
     5 profit[t]                   0            -0             = 
     6 get_worst[q]                2            -0               
     7 get_worst[r]                0            -0               
     8 get_worst[s]                0            -0               
     9 get_worst[t]                3            -0               

   No. Column name       Activity     Lower bound   Upper bound
------ ------------    ------------- ------------- -------------
     1 accepted[a]  *              1             0             1 
     2 accepted[b]  *              1             0             1 
     3 accepted[c]  *              1             0             1 
     4 accepted[d]  *              0             0             1 
     5 accepted[e]  *              0             0             1 
     6 profits[q]                  3                             
     7 profits[r]                  1                             
     8 profits[s]                  1                             
     9 profits[t]                  4                             
    10 worst_case_profit
                                   1             0               

Integer feasibility conditions:

KKT.PE: max.abs.err = 0.00e+00 on row 0
        max.rel.err = 0.00e+00 on row 0
        High quality

KKT.PB: max.abs.err = 0.00e+00 on row 0
        max.rel.err = 0.00e+00 on row 0
        High quality

End of output
